n = 28;
k = 2;
roles = [
{g, d},
{m, g},
{f, d},
{d, f},
{g, f},
{m, g},
{d, g},
{d, g},
{m, f},
{d, m},
{f, d},
{g, f},
{g, f},
{f, d},
{g, d},
{m, d},
{g, m},
{f, d},
{f, m},
{g, f},
{f, g},
{d, g},
{g, f},
{d, g},
{m, g},
{g, m},
{g, d},
{f, d}
];
num_pairs = 1;
player1 = [22];
player2 = [20];
